solving instance uflp nlass holmberg 47 square
Set parameter TokenServer to value "licences.gerad.lan"
Set parameter MIPGap to value 1e-06
Set parameter FuncPieceError to value 1e-06
Set parameter Threads to value 1
Set parameter FuncPieces to value -2
Set parameter TimeLimit to value 3600
Gurobi Optimizer version 12.0.2 build v12.0.2rc0 (linux64 - "AlmaLinux 9.6 (Sage Margay)")

CPU model: Intel(R) Xeon(R) Gold 6258R CPU @ 2.70GHz, instruction set [SSE2|AVX|AVX2|AVX512]
Thread count: 56 physical cores, 56 logical processors, using up to 1 threads

Non-default parameters:
TimeLimit  3600
MIPGap  1e-06
Threads  1
FuncPieces  -2
FuncPieceError  1e-06

Optimize a model with 2790 rows, 3610 columns and 6300 nonzeros
Model fingerprint: 0x25505283
Model has 900 function constraints treated as nonlinear
  900 POW
Variable types: 2700 continuous, 910 integer (910 binary)
Coefficient statistics:
  Matrix range     [1e+00, 4e+02]
  Objective range  [1e+00, 5e+02]
  Bounds range     [1e+00, 1e+10]
  RHS range        [1e+00, 1e+00]
Warning: Model contains large bounds
         Consider reformulating model or setting NumericFocus parameter
         to avoid numerical issues.
Presolve removed 1800 rows and 2700 columns
Presolve time: 0.01s
Presolved: 990 rows, 910 columns, 2700 nonzeros
Presolved model has 900 quadratic objective terms
Variable types: 900 continuous, 10 integer (10 binary)
Found heuristic solution: objective 4674.7777295

Root relaxation: objective 1.696283e+03, 1336 iterations, 0.02 seconds (0.01 work units)

    Nodes    |    Current Node    |     Objective Bounds      |     Work
 Expl Unexpl |  Obj  Depth IntInf | Incumbent    BestBd   Gap | It/Node Time

     0     0 1696.28324    0   10 4674.77773 1696.28324  63.7%     -    0s
     0     0 1699.10096    0   10 4674.77773 1699.10096  63.7%     -    0s
H    0     0                    4460.5244143 1701.06189  61.9%     -    0s
H    0     0                    4055.7928546 1701.06189  58.1%     -    0s
H    0     0                    4048.9061332 1701.06189  58.0%     -    0s
     0     2 1701.79038    0   10 4048.90613 1701.79038  58.0%     -    0s
H    9     9                    4022.1157529 2065.15459  48.7%   115    0s
H   11    11                    3951.4822908 2065.15459  47.7%   109    0s
H   13    13                    3897.3641324 2065.15459  47.0%   103    0s
H   15    15                    3836.9480367 2065.15459  46.2%  98.9    0s
H   17    17                    3794.8812137 2065.15459  45.6%  94.5    0s
*   19    17              10    3768.9453348 2065.15459  45.2%  96.4    0s
*   20    16              10    3735.6803023 2065.15459  44.7%  92.1    0s
*   37    25              10    3697.0034755 2072.35976  43.9%  87.1    0s
*   73    43              10    3680.2904410 2171.21615  41.0%  77.5    0s
*  175    57              10    3671.5784817 2513.40126  31.5%  66.1    0s

Explored 910 nodes (48046 simplex iterations) in 1.48 seconds (1.02 work units)
Thread count was 1 (of 56 available processors)

Solution count 9: 3671.58 3680.29 3697 ... 4674.78

Optimal solution found (tolerance 1.00e-06)
Best objective 3.671578481658e+03, best bound 3.671578481658e+03, gap 0.0000%

User-callback calls 2774, time in user-callback 0.00 sec
reading holmberg data file ../../../../../instances/uflp/holmberg/p47
primal_bound = 3671.578481657503, dual_bound = 3671.578481657504, gap = 3.715682667481798e-14, time = 1.49
